21 94 
90 99 
40 45 
51 91 
30 57 
54 9 
3 69 
73 51 
96 94 
30 81 
46 47 
2 92 
41 52 
25 35 
97 13 
2 70 
7 93 
69 48 
90 72 
91 20 
30 97 
81 85 
19 54 
37 67 
1 19 
48 99 
66 50 
43 59 
54 68 
94 51 
33 49 
74 93 
42 43 
93 84 
16 84 
4 98 
33 37 
83 52 
44 20 
19 45 
40 67 
96 58 
69 39 
18 24 
59 64 
27 93 
13 1 
86 7 
45 79 
91 13 
